(set-info :smt-lib-version 2.6)
(set-logic QF_FP)
(set-info :source |
Generated by: Chenqi Cui
Generated on: 2026-01-04
Generator: AutoSMTGen
Application: Generating SMT constraints with small solution spaces to make them challenging for SMT solvers
Target solver: Z3, CVC5, Bitwuzla
|)
(set-info :license "https://creativecommons.org/licenses/by/4.0/")
(set-info :category "industrial")
(set-info :status unsat)
; benchmark generated from python API

(declare-fun x10 () (_ FloatingPoint 11 53))
(declare-fun x9 () (_ FloatingPoint 11 53))
(declare-fun x8 () (_ FloatingPoint 11 53))
(declare-fun x7 () (_ FloatingPoint 11 53))
(declare-fun x6 () (_ FloatingPoint 11 53))
(declare-fun x5 () (_ FloatingPoint 11 53))
(declare-fun x4 () (_ FloatingPoint 11 53))
(declare-fun x3 () (_ FloatingPoint 11 53))
(declare-fun x2 () (_ FloatingPoint 11 53))
(declare-fun x1 () (_ FloatingPoint 11 53))
(declare-fun x0 () (_ FloatingPoint 11 53))
(assert
 (let ((?x21 (fp.add roundNearestTiesToEven (fp.mul roundNearestTiesToEven (fp #b1 #b10000000101 #x7977abef458a3) x0) (fp.mul roundNearestTiesToEven (fp #b1 #b10000000101 #x1c7f0fe5fdc26) x1))))
 (let ((?x24 (fp.add roundNearestTiesToEven ?x21 (fp.mul roundNearestTiesToEven (fp #b1 #b10000000101 #x037232f2fea7e) x2))))
 (let ((?x27 (fp.add roundNearestTiesToEven ?x24 (fp.mul roundNearestTiesToEven (fp #b0 #b10000000011 #xae3e302e857ca) x3))))
 (let ((?x30 (fp.add roundNearestTiesToEven ?x27 (fp.mul roundNearestTiesToEven (fp #b0 #b10000000100 #x20a6e9b6b25a0) x4))))
 (let ((?x33 (fp.add roundNearestTiesToEven ?x30 (fp.mul roundNearestTiesToEven (fp #b1 #b10000000100 #x56f5957d9776f) x5))))
 (let ((?x36 (fp.add roundNearestTiesToEven ?x33 (fp.mul roundNearestTiesToEven (fp #b0 #b10000000100 #x158b104f53e64) x6))))
 (let ((?x39 (fp.add roundNearestTiesToEven ?x36 (fp.mul roundNearestTiesToEven (fp #b1 #b10000000101 #x6f6735c72ce7e) x7))))
 (let ((?x42 (fp.add roundNearestTiesToEven ?x39 (fp.mul roundNearestTiesToEven (fp #b0 #b10000000010 #x0dc8e34ad2061) x8))))
 (let ((?x45 (fp.add roundNearestTiesToEven ?x42 (fp.mul roundNearestTiesToEven (fp #b1 #b10000000100 #x868239bfcac8e) x9))))
 (let ((?x48 (fp.add roundNearestTiesToEven ?x45 (fp.mul roundNearestTiesToEven (fp #b0 #b10000000001 #x2738c3f044f6d) x10))))
 (fp.leq ?x48 (fp #b0 #b10000000101 #x66e0bf16e87a0)))))))))))))
(assert
 (let ((?x72 (fp.add roundNearestTiesToEven (fp.mul roundNearestTiesToEven (fp #b1 #b10000000011 #xc4809b80c52de) x0) (fp.mul roundNearestTiesToEven (fp #b1 #b10000000010 #x3b243fa0dbce0) x1))))
 (let ((?x75 (fp.add roundNearestTiesToEven ?x72 (fp.mul roundNearestTiesToEven (fp #b0 #b10000000100 #x329fbd0aa2ead) x2))))
 (let ((?x78 (fp.add roundNearestTiesToEven ?x75 (fp.mul roundNearestTiesToEven (fp #b0 #b10000000011 #x513e52f26183d) x3))))
 (let ((?x81 (fp.add roundNearestTiesToEven ?x78 (fp.mul roundNearestTiesToEven (fp #b1 #b10000000101 #x75f5c5f50c88c) x4))))
 (let ((?x84 (fp.add roundNearestTiesToEven ?x81 (fp.mul roundNearestTiesToEven (fp #b1 #b10000000010 #x9b288077ab9c9) x5))))
 (let ((?x87 (fp.add roundNearestTiesToEven ?x84 (fp.mul roundNearestTiesToEven (fp #b0 #b10000000101 #x65cf1a7c1e462) x6))))
 (let ((?x90 (fp.add roundNearestTiesToEven ?x87 (fp.mul roundNearestTiesToEven (fp #b0 #b10000000100 #x39e564b4f8584) x7))))
 (let ((?x93 (fp.add roundNearestTiesToEven ?x90 (fp.mul roundNearestTiesToEven (fp #b1 #b10000000100 #x0941374cf766a) x8))))
 (let ((?x96 (fp.add roundNearestTiesToEven ?x93 (fp.mul roundNearestTiesToEven (fp #b0 #b10000000100 #x45991dd62938c) x9))))
 (let ((?x99 (fp.add roundNearestTiesToEven ?x96 (fp.mul roundNearestTiesToEven (fp #b0 #b10000000101 #x0f214537d07e2) x10))))
 (fp.leq ?x99 (fp #b0 #b10000000100 #x2ffe858e744e0)))))))))))))
(assert
 (let ((?x106 (fp.add roundNearestTiesToEven (fp.mul roundNearestTiesToEven (fp #b1 #b10000000100 #x64e4cbbe6f4d0) x0) (fp.mul roundNearestTiesToEven (fp #b1 #b10000000100 #x61353d538f315) x1))))
 (let ((?x109 (fp.add roundNearestTiesToEven ?x106 (fp.mul roundNearestTiesToEven (fp #b0 #b10000000001 #xd0dd2ee6125db) x2))))
 (let ((?x112 (fp.add roundNearestTiesToEven ?x109 (fp.mul roundNearestTiesToEven (fp #b1 #b10000000001 #x78e4fe2e0b767) x3))))
 (let ((?x115 (fp.add roundNearestTiesToEven ?x112 (fp.mul roundNearestTiesToEven (fp #b1 #b10000000011 #x1d72ece290d18) x4))))
 (let ((?x118 (fp.add roundNearestTiesToEven ?x115 (fp.mul roundNearestTiesToEven (fp #b0 #b10000000011 #x77803c2d2c2cc) x5))))
 (let ((?x121 (fp.add roundNearestTiesToEven ?x118 (fp.mul roundNearestTiesToEven (fp #b0 #b10000000011 #x630d84544ae2c) x6))))
 (let ((?x124 (fp.add roundNearestTiesToEven ?x121 (fp.mul roundNearestTiesToEven (fp #b0 #b10000000101 #x92b18d2d4c76b) x7))))
 (let ((?x127 (fp.add roundNearestTiesToEven ?x124 (fp.mul roundNearestTiesToEven (fp #b0 #b10000000100 #xcb5834d87ce50) x8))))
 (let ((?x130 (fp.add roundNearestTiesToEven ?x127 (fp.mul roundNearestTiesToEven (fp #b1 #b10000000001 #x702d738d5e09c) x9))))
 (let ((?x133 (fp.add roundNearestTiesToEven ?x130 (fp.mul roundNearestTiesToEven (fp #b1 #b10000000101 #x363ac4a2abb1c) x10))))
 (fp.leq ?x133 (fp #b1 #b01111111111 #xa076c5532b640)))))))))))))
(assert
 (let ((?x140 (fp.add roundNearestTiesToEven (fp.mul roundNearestTiesToEven (fp #b0 #b10000000101 #x2748bd27bfe0d) x0) (fp.mul roundNearestTiesToEven (fp #b0 #b10000000101 #x0a5687effc7ff) x1))))
 (let ((?x143 (fp.add roundNearestTiesToEven ?x140 (fp.mul roundNearestTiesToEven (fp #b1 #b10000000010 #x0e4e09c1c061e) x2))))
 (let ((?x146 (fp.add roundNearestTiesToEven ?x143 (fp.mul roundNearestTiesToEven (fp #b1 #b10000000101 #x1d3dd2de2a466) x3))))
 (let ((?x149 (fp.add roundNearestTiesToEven ?x146 (fp.mul roundNearestTiesToEven (fp #b1 #b10000000100 #x79e7689c36c72) x4))))
 (let ((?x152 (fp.add roundNearestTiesToEven ?x149 (fp.mul roundNearestTiesToEven (fp #b1 #b10000000011 #xc02db4762bf76) x5))))
 (let ((?x155 (fp.add roundNearestTiesToEven ?x152 (fp.mul roundNearestTiesToEven (fp #b0 #b10000000100 #x78be751a9635f) x6))))
 (let ((?x158 (fp.add roundNearestTiesToEven ?x155 (fp.mul roundNearestTiesToEven (fp #b1 #b10000000101 #x2f4100496e23e) x7))))
 (let ((?x161 (fp.add roundNearestTiesToEven ?x158 (fp.mul roundNearestTiesToEven (fp #b0 #b10000000011 #x1c37fb910a996) x8))))
 (let ((?x164 (fp.add roundNearestTiesToEven ?x161 (fp.mul roundNearestTiesToEven (fp #b0 #b10000000011 #xbdc467c7212f5) x9))))
 (let ((?x167 (fp.add roundNearestTiesToEven ?x164 (fp.mul roundNearestTiesToEven (fp #b0 #b10000000100 #xcb89f86d4510a) x10))))
 (fp.leq ?x167 (fp #b1 #b10000000100 #x0d949a8314bda)))))))))))))
(assert
 (let ((?x174 (fp.add roundNearestTiesToEven (fp.mul roundNearestTiesToEven (fp #b0 #b10000000100 #x744db25429961) x0) (fp.mul roundNearestTiesToEven (fp #b1 #b10000000100 #x47c122ecbb5aa) x1))))
 (let ((?x177 (fp.add roundNearestTiesToEven ?x174 (fp.mul roundNearestTiesToEven (fp #b0 #b10000000101 #xe9ef2aba16e64) x2))))
 (let ((?x180 (fp.add roundNearestTiesToEven ?x177 (fp.mul roundNearestTiesToEven (fp #b0 #b10000000100 #x772157fbb6da6) x3))))
 (let ((?x183 (fp.add roundNearestTiesToEven ?x180 (fp.mul roundNearestTiesToEven (fp #b1 #b10000000011 #x61efc628292f8) x4))))
 (let ((?x186 (fp.add roundNearestTiesToEven ?x183 (fp.mul roundNearestTiesToEven (fp #b1 #b10000000101 #x5ba1afb28e5ba) x5))))
 (let ((?x189 (fp.add roundNearestTiesToEven ?x186 (fp.mul roundNearestTiesToEven (fp #b1 #b10000000101 #xa0233098c0aa0) x6))))
 (let ((?x192 (fp.add roundNearestTiesToEven ?x189 (fp.mul roundNearestTiesToEven (fp #b0 #b10000000011 #xc949732f82cb1) x7))))
 (let ((?x195 (fp.add roundNearestTiesToEven ?x192 (fp.mul roundNearestTiesToEven (fp #b1 #b10000000001 #xfbeaa520bf350) x8))))
 (let ((?x198 (fp.add roundNearestTiesToEven ?x195 (fp.mul roundNearestTiesToEven (fp #b0 #b10000000011 #x6c7f7cae90aec) x9))))
 (let ((?x201 (fp.add roundNearestTiesToEven ?x198 (fp.mul roundNearestTiesToEven (fp #b1 #b10000000101 #x31d2eaebfa66e) x10))))
 (fp.leq ?x201 (fp #b1 #b10000000101 #x84677865f44d1)))))))))))))
(assert
 (let ((?x208 (fp.add roundNearestTiesToEven (fp.mul roundNearestTiesToEven (fp #b1 #b10000000100 #x8233e941a3260) x0) (fp.mul roundNearestTiesToEven (fp #b1 #b10000000100 #x9aa87f190178b) x1))))
 (let ((?x211 (fp.add roundNearestTiesToEven ?x208 (fp.mul roundNearestTiesToEven (fp #b1 #b10000000100 #x522c92b6c0458) x2))))
 (let ((?x214 (fp.add roundNearestTiesToEven ?x211 (fp.mul roundNearestTiesToEven (fp #b0 #b10000000100 #xfbb6f249be11a) x3))))
 (let ((?x217 (fp.add roundNearestTiesToEven ?x214 (fp.mul roundNearestTiesToEven (fp #b0 #b10000000001 #xf397dea54ec6c) x4))))
 (let ((?x220 (fp.add roundNearestTiesToEven ?x217 (fp.mul roundNearestTiesToEven (fp #b1 #b10000000100 #x994ae13e221f2) x5))))
 (let ((?x223 (fp.add roundNearestTiesToEven ?x220 (fp.mul roundNearestTiesToEven (fp #b0 #b10000000010 #x9928d6d9da0b6) x6))))
 (let ((?x226 (fp.add roundNearestTiesToEven ?x223 (fp.mul roundNearestTiesToEven (fp #b0 #b10000000101 #x36c20bad043b5) x7))))
 (let ((?x229 (fp.add roundNearestTiesToEven ?x226 (fp.mul roundNearestTiesToEven (fp #b0 #b10000000011 #x69e53e5e4866e) x8))))
 (let ((?x232 (fp.add roundNearestTiesToEven ?x229 (fp.mul roundNearestTiesToEven (fp #b0 #b10000000101 #x53ba80899335d) x9))))
 (let ((?x235 (fp.add roundNearestTiesToEven ?x232 (fp.mul roundNearestTiesToEven (fp #b0 #b10000000101 #xb42c6df8e31ec) x10))))
 (fp.leq ?x235 (fp #b0 #b10000000101 #x487aca5694980)))))))))))))
(assert
 (let ((?x242 (fp.add roundNearestTiesToEven (fp.mul roundNearestTiesToEven (fp #b1 #b10000000101 #x63f17b92679f0) x0) (fp.mul roundNearestTiesToEven (fp #b0 #b10000000101 #x660b97355c4d5) x1))))
 (let ((?x245 (fp.add roundNearestTiesToEven ?x242 (fp.mul roundNearestTiesToEven (fp #b0 #b10000000100 #x16d7e8967e720) x2))))
 (let ((?x248 (fp.add roundNearestTiesToEven ?x245 (fp.mul roundNearestTiesToEven (fp #b0 #b10000000010 #x0f6e590e3f355) x3))))
 (let ((?x251 (fp.add roundNearestTiesToEven ?x248 (fp.mul roundNearestTiesToEven (fp #b0 #b10000000000 #x68c6338309108) x4))))
 (let ((?x254 (fp.add roundNearestTiesToEven ?x251 (fp.mul roundNearestTiesToEven (fp #b0 #b10000000101 #x91f016674b693) x5))))
 (let ((?x257 (fp.add roundNearestTiesToEven ?x254 (fp.mul roundNearestTiesToEven (fp #b0 #b10000000100 #xa6eb6a2c97ef0) x6))))
 (let ((?x260 (fp.add roundNearestTiesToEven ?x257 (fp.mul roundNearestTiesToEven (fp #b1 #b10000000101 #x53eaaf8ff7471) x7))))
 (let ((?x263 (fp.add roundNearestTiesToEven ?x260 (fp.mul roundNearestTiesToEven (fp #b0 #b10000000101 #x8e8d8f347016c) x8))))
 (let ((?x266 (fp.add roundNearestTiesToEven ?x263 (fp.mul roundNearestTiesToEven (fp #b0 #b10000000100 #x055799ee094a6) x9))))
 (let ((?x269 (fp.add roundNearestTiesToEven ?x266 (fp.mul roundNearestTiesToEven (fp #b0 #b10000000101 #xa8795a66a486a) x10))))
 (fp.leq ?x269 (fp #b1 #b10000000101 #x45664dd6eb0da)))))))))))))
(assert
 (let ((?x276 (fp.add roundNearestTiesToEven (fp.mul roundNearestTiesToEven (fp #b0 #b10000000100 #xa336c8b453d31) x0) (fp.mul roundNearestTiesToEven (fp #b0 #b10000000001 #x4d6a83732604a) x1))))
 (let ((?x279 (fp.add roundNearestTiesToEven ?x276 (fp.mul roundNearestTiesToEven (fp #b0 #b10000000101 #xa3627a979b646) x2))))
 (let ((?x282 (fp.add roundNearestTiesToEven ?x279 (fp.mul roundNearestTiesToEven (fp #b1 #b10000000101 #x57fe1888dd13e) x3))))
 (let ((?x285 (fp.add roundNearestTiesToEven ?x282 (fp.mul roundNearestTiesToEven (fp #b1 #b10000000100 #x241f442e4cf33) x4))))
 (let ((?x288 (fp.add roundNearestTiesToEven ?x285 (fp.mul roundNearestTiesToEven (fp #b0 #b10000000100 #x509f84d186978) x5))))
 (let ((?x291 (fp.add roundNearestTiesToEven ?x288 (fp.mul roundNearestTiesToEven (fp #b1 #b10000000101 #x982e84b9c3127) x6))))
 (let ((?x294 (fp.add roundNearestTiesToEven ?x291 (fp.mul roundNearestTiesToEven (fp #b1 #b10000000011 #x3b1eaddeabaf6) x7))))
 (let ((?x297 (fp.add roundNearestTiesToEven ?x294 (fp.mul roundNearestTiesToEven (fp #b1 #b10000000101 #x3f2ad06b85d1a) x8))))
 (let ((?x300 (fp.add roundNearestTiesToEven ?x297 (fp.mul roundNearestTiesToEven (fp #b0 #b01111111111 #x40e21c6acd222) x9))))
 (let ((?x303 (fp.add roundNearestTiesToEven ?x300 (fp.mul roundNearestTiesToEven (fp #b1 #b10000000011 #x255b65e9ad9c4) x10))))
 (fp.leq ?x303 (fp #b0 #b10000000100 #x6e0559be98358)))))))))))))
(assert
 (let ((?x310 (fp.add roundNearestTiesToEven (fp.mul roundNearestTiesToEven (fp #b0 #b10000000100 #x35e3d0111153f) x0) (fp.mul roundNearestTiesToEven (fp #b0 #b10000000100 #x20c31d2fd5258) x1))))
 (let ((?x313 (fp.add roundNearestTiesToEven ?x310 (fp.mul roundNearestTiesToEven (fp #b0 #b01111111110 #x84c1683cf7ad0) x2))))
 (let ((?x316 (fp.add roundNearestTiesToEven ?x313 (fp.mul roundNearestTiesToEven (fp #b1 #b10000000010 #xd58ab70b2f1a6) x3))))
 (let ((?x319 (fp.add roundNearestTiesToEven ?x316 (fp.mul roundNearestTiesToEven (fp #b0 #b10000000011 #x9bf33c134a7cc) x4))))
 (let ((?x322 (fp.add roundNearestTiesToEven ?x319 (fp.mul roundNearestTiesToEven (fp #b1 #b10000000100 #x1b76fb8f09964) x5))))
 (let ((?x325 (fp.add roundNearestTiesToEven ?x322 (fp.mul roundNearestTiesToEven (fp #b1 #b10000000011 #x4928cc88555b8) x6))))
 (let ((?x328 (fp.add roundNearestTiesToEven ?x325 (fp.mul roundNearestTiesToEven (fp #b1 #b10000000101 #xb7224468a2be1) x7))))
 (let ((?x331 (fp.add roundNearestTiesToEven ?x328 (fp.mul roundNearestTiesToEven (fp #b0 #b10000000101 #x0f3422a0a3b68) x8))))
 (let ((?x334 (fp.add roundNearestTiesToEven ?x331 (fp.mul roundNearestTiesToEven (fp #b0 #b10000000100 #xbf546d471f57f) x9))))
 (let ((?x337 (fp.add roundNearestTiesToEven ?x334 (fp.mul roundNearestTiesToEven (fp #b1 #b10000000101 #x0cb9ede231109) x10))))
 (fp.leq ?x337 (fp #b0 #b10000000011 #x825f8af0efc2c)))))))))))))
(assert
 (let ((?x344 (fp.add roundNearestTiesToEven (fp.mul roundNearestTiesToEven (fp #b0 #b10000000101 #x2a95d7af11f5d) x0) (fp.mul roundNearestTiesToEven (fp #b0 #b10000000101 #x44df9d1fe59a9) x1))))
 (let ((?x347 (fp.add roundNearestTiesToEven ?x344 (fp.mul roundNearestTiesToEven (fp #b0 #b10000000101 #x0c255939b97d0) x2))))
 (let ((?x350 (fp.add roundNearestTiesToEven ?x347 (fp.mul roundNearestTiesToEven (fp #b1 #b10000000101 #x51c4b5c9bb76b) x3))))
 (let ((?x353 (fp.add roundNearestTiesToEven ?x350 (fp.mul roundNearestTiesToEven (fp #b0 #b10000000100 #x974cab16948da) x4))))
 (let ((?x356 (fp.add roundNearestTiesToEven ?x353 (fp.mul roundNearestTiesToEven (fp #b0 #b10000000010 #x01e1932fde738) x5))))
 (let ((?x359 (fp.add roundNearestTiesToEven ?x356 (fp.mul roundNearestTiesToEven (fp #b0 #b10000000011 #x9026f59f015b8) x6))))
 (let ((?x362 (fp.add roundNearestTiesToEven ?x359 (fp.mul roundNearestTiesToEven (fp #b0 #b10000000100 #xa2963d75042a5) x7))))
 (let ((?x365 (fp.add roundNearestTiesToEven ?x362 (fp.mul roundNearestTiesToEven (fp #b1 #b10000000100 #x07b4f219a112e) x8))))
 (let ((?x368 (fp.add roundNearestTiesToEven ?x365 (fp.mul roundNearestTiesToEven (fp #b1 #b10000000100 #x9554cdbcf937f) x9))))
 (let ((?x371 (fp.add roundNearestTiesToEven ?x368 (fp.mul roundNearestTiesToEven (fp #b1 #b10000000101 #x6ccc6bb581b6e) x10))))
 (fp.leq ?x371 (fp #b0 #b10000000100 #x32addc3d42a9c)))))))))))))
(assert
 (let ((?x378 (fp.add roundNearestTiesToEven (fp.mul roundNearestTiesToEven (fp #b0 #b10000000000 #x7bb66e3e8034c) x0) (fp.mul roundNearestTiesToEven (fp #b0 #b10000000100 #xa6c2db88abf0a) x1))))
 (let ((?x381 (fp.add roundNearestTiesToEven ?x378 (fp.mul roundNearestTiesToEven (fp #b1 #b10000000101 #x817fa192f6641) x2))))
 (let ((?x384 (fp.add roundNearestTiesToEven ?x381 (fp.mul roundNearestTiesToEven (fp #b1 #b10000000010 #x9cc3570be7f36) x3))))
 (let ((?x387 (fp.add roundNearestTiesToEven ?x384 (fp.mul roundNearestTiesToEven (fp #b0 #b10000000100 #x654ba2e806bcd) x4))))
 (let ((?x390 (fp.add roundNearestTiesToEven ?x387 (fp.mul roundNearestTiesToEven (fp #b0 #b01111111111 #x4103d5eec5088) x5))))
 (let ((?x393 (fp.add roundNearestTiesToEven ?x390 (fp.mul roundNearestTiesToEven (fp #b0 #b10000000011 #x4cfbd8bb403b2) x6))))
 (let ((?x396 (fp.add roundNearestTiesToEven ?x393 (fp.mul roundNearestTiesToEven (fp #b1 #b10000000011 #xdb66ea1e1a21f) x7))))
 (let ((?x399 (fp.add roundNearestTiesToEven ?x396 (fp.mul roundNearestTiesToEven (fp #b1 #b10000000100 #x4ef320a37d7c9) x8))))
 (let ((?x402 (fp.add roundNearestTiesToEven ?x399 (fp.mul roundNearestTiesToEven (fp #b1 #b01111111101 #x6acba60315940) x9))))
 (let ((?x405 (fp.add roundNearestTiesToEven ?x402 (fp.mul roundNearestTiesToEven (fp #b1 #b10000000100 #x130ac655caafc) x10))))
 (fp.leq ?x405 (fp #b1 #b10000000100 #x4ed6c7299b490)))))))))))))
(assert
 (let ((?x412 (fp.add roundNearestTiesToEven (fp.mul roundNearestTiesToEven (fp #b0 #b10000000100 #x731e0812eb693) x0) (fp.mul roundNearestTiesToEven (fp #b1 #b10000000011 #x4df9616e30cc6) x1))))
 (let ((?x415 (fp.add roundNearestTiesToEven ?x412 (fp.mul roundNearestTiesToEven (fp #b0 #b10000000101 #x0e2a45a55bb1a) x2))))
 (let ((?x418 (fp.add roundNearestTiesToEven ?x415 (fp.mul roundNearestTiesToEven (fp #b0 #b10000000100 #xa85870ba9e059) x3))))
 (let ((?x421 (fp.add roundNearestTiesToEven ?x418 (fp.mul roundNearestTiesToEven (fp #b1 #b10000000100 #x28b834e966f7c) x4))))
 (let ((?x424 (fp.add roundNearestTiesToEven ?x421 (fp.mul roundNearestTiesToEven (fp #b0 #b10000000100 #xcfa485c7ec108) x5))))
 (let ((?x427 (fp.add roundNearestTiesToEven ?x424 (fp.mul roundNearestTiesToEven (fp #b0 #b10000000100 #x4c82727dc4fb3) x6))))
 (let ((?x430 (fp.add roundNearestTiesToEven ?x427 (fp.mul roundNearestTiesToEven (fp #b0 #b10000000011 #xc20f0c1c17ef6) x7))))
 (let ((?x433 (fp.add roundNearestTiesToEven ?x430 (fp.mul roundNearestTiesToEven (fp #b1 #b10000000101 #x47b82d8fb88e4) x8))))
 (let ((?x436 (fp.add roundNearestTiesToEven ?x433 (fp.mul roundNearestTiesToEven (fp #b1 #b10000000100 #x3a889d86d6124) x9))))
 (let ((?x439 (fp.add roundNearestTiesToEven ?x436 (fp.mul roundNearestTiesToEven (fp #b1 #b10000000100 #xda46280781bf8) x10))))
 (fp.leq ?x439 (fp #b1 #b10000000101 #x40829d70f565d)))))))))))))
(assert
 (let ((?x446 (fp.add roundNearestTiesToEven (fp.mul roundNearestTiesToEven (fp #b0 #b10000000101 #x3ce207f9a4456) x0) (fp.mul roundNearestTiesToEven (fp #b1 #b10000000101 #x119f50f05fab1) x1))))
 (let ((?x449 (fp.add roundNearestTiesToEven ?x446 (fp.mul roundNearestTiesToEven (fp #b1 #b10000000100 #xc7fd0b297582d) x2))))
 (let ((?x452 (fp.add roundNearestTiesToEven ?x449 (fp.mul roundNearestTiesToEven (fp #b1 #b10000000100 #x09705ab0725c8) x3))))
 (let ((?x455 (fp.add roundNearestTiesToEven ?x452 (fp.mul roundNearestTiesToEven (fp #b0 #b10000000011 #xf8ac5343eb513) x4))))
 (let ((?x458 (fp.add roundNearestTiesToEven ?x455 (fp.mul roundNearestTiesToEven (fp #b0 #b10000000100 #xba46b9c032dd3) x5))))
 (let ((?x461 (fp.add roundNearestTiesToEven ?x458 (fp.mul roundNearestTiesToEven (fp #b1 #b10000000101 #x219e36a6905dd) x6))))
 (let ((?x464 (fp.add roundNearestTiesToEven ?x461 (fp.mul roundNearestTiesToEven (fp #b1 #b10000000101 #xbf410c8cc01f4) x7))))
 (let ((?x467 (fp.add roundNearestTiesToEven ?x464 (fp.mul roundNearestTiesToEven (fp #b1 #b10000000100 #xe96ab5cdacb66) x8))))
 (let ((?x470 (fp.add roundNearestTiesToEven ?x467 (fp.mul roundNearestTiesToEven (fp #b1 #b10000000101 #x9f9496f072652) x9))))
 (let ((?x473 (fp.add roundNearestTiesToEven ?x470 (fp.mul roundNearestTiesToEven (fp #b0 #b10000000100 #xe41b85948421c) x10))))
 (fp.leq ?x473 (fp #b0 #b10000000011 #x6c8b7e426d84c)))))))))))))
(assert
 (let ((?x480 (fp.add roundNearestTiesToEven (fp.mul roundNearestTiesToEven (fp #b0 #b10000000101 #x6110426ab8d23) x0) (fp.mul roundNearestTiesToEven (fp #b1 #b10000000100 #x8e424084a4975) x1))))
 (let ((?x483 (fp.add roundNearestTiesToEven ?x480 (fp.mul roundNearestTiesToEven (fp #b1 #b10000000101 #x62e890d71b77f) x2))))
 (let ((?x486 (fp.add roundNearestTiesToEven ?x483 (fp.mul roundNearestTiesToEven (fp #b0 #b10000000100 #x2dc51bbb05a71) x3))))
 (let ((?x489 (fp.add roundNearestTiesToEven ?x486 (fp.mul roundNearestTiesToEven (fp #b1 #b10000000100 #x62ba616f9e043) x4))))
 (let ((?x492 (fp.add roundNearestTiesToEven ?x489 (fp.mul roundNearestTiesToEven (fp #b0 #b10000000010 #xfbccc8aead412) x5))))
 (let ((?x495 (fp.add roundNearestTiesToEven ?x492 (fp.mul roundNearestTiesToEven (fp #b1 #b10000000011 #xae23d93951e67) x6))))
 (let ((?x498 (fp.add roundNearestTiesToEven ?x495 (fp.mul roundNearestTiesToEven (fp #b0 #b10000000011 #xb47af7a39e191) x7))))
 (let ((?x501 (fp.add roundNearestTiesToEven ?x498 (fp.mul roundNearestTiesToEven (fp #b1 #b10000000100 #x357ad8e2b0516) x8))))
 (let ((?x504 (fp.add roundNearestTiesToEven ?x501 (fp.mul roundNearestTiesToEven (fp #b0 #b10000000010 #x023654bcca4cc) x9))))
 (let ((?x507 (fp.add roundNearestTiesToEven ?x504 (fp.mul roundNearestTiesToEven (fp #b1 #b10000000010 #x5e8349c39cdf0) x10))))
 (fp.leq ?x507 (fp #b1 #b10000000100 #x8ca8759f40cf2)))))))))))))
(assert
 (let ((?x514 (fp.add roundNearestTiesToEven (fp.mul roundNearestTiesToEven (fp #b1 #b10000000101 #x24eb04eefd7b3) x0) (fp.mul roundNearestTiesToEven (fp #b1 #b10000000101 #x3a8c2b3cbce13) x1))))
 (let ((?x517 (fp.add roundNearestTiesToEven ?x514 (fp.mul roundNearestTiesToEven (fp #b1 #b10000000101 #x124d37ef3dc62) x2))))
 (let ((?x520 (fp.add roundNearestTiesToEven ?x517 (fp.mul roundNearestTiesToEven (fp #b0 #b10000000100 #xfd8b793e5ad70) x3))))
 (let ((?x523 (fp.add roundNearestTiesToEven ?x520 (fp.mul roundNearestTiesToEven (fp #b1 #b10000000101 #x5584d024ade4e) x4))))
 (let ((?x526 (fp.add roundNearestTiesToEven ?x523 (fp.mul roundNearestTiesToEven (fp #b1 #b10000000101 #x7dff04afa1b70) x5))))
 (let ((?x529 (fp.add roundNearestTiesToEven ?x526 (fp.mul roundNearestTiesToEven (fp #b1 #b10000000100 #x6acbd27db2b72) x6))))
 (let ((?x532 (fp.add roundNearestTiesToEven ?x529 (fp.mul roundNearestTiesToEven (fp #b0 #b10000000100 #x42dadb63fe721) x7))))
 (let ((?x535 (fp.add roundNearestTiesToEven ?x532 (fp.mul roundNearestTiesToEven (fp #b1 #b10000000000 #x49191ae5c08bc) x8))))
 (let ((?x538 (fp.add roundNearestTiesToEven ?x535 (fp.mul roundNearestTiesToEven (fp #b1 #b10000000101 #xdc5c0dfee7b6a) x9))))
 (let ((?x541 (fp.add roundNearestTiesToEven ?x538 (fp.mul roundNearestTiesToEven (fp #b0 #b10000000101 #x333633fd39f68) x10))))
 (fp.leq ?x541 (fp #b0 #b10000000100 #x56d87b1c157ac)))))))))))))
(assert
 (fp.geq x0 (fp #b1 #b10000100000 #x2a05f20000000)))
(assert
 (fp.leq x0 (fp #b0 #b10000100000 #x2a05f20000000)))
(assert
 (fp.geq x1 (fp #b1 #b10000100000 #x2a05f20000000)))
(assert
 (fp.leq x1 (fp #b0 #b10000100000 #x2a05f20000000)))
(assert
 (fp.geq x2 (fp #b1 #b10000100000 #x2a05f20000000)))
(assert
 (fp.leq x2 (fp #b0 #b10000100000 #x2a05f20000000)))
(assert
 (fp.geq x3 (fp #b1 #b10000100000 #x2a05f20000000)))
(assert
 (fp.leq x3 (fp #b0 #b10000100000 #x2a05f20000000)))
(assert
 (fp.geq x4 (fp #b1 #b10000100000 #x2a05f20000000)))
(assert
 (fp.leq x4 (fp #b0 #b10000100000 #x2a05f20000000)))
(assert
 (fp.geq x5 (fp #b1 #b10000100000 #x2a05f20000000)))
(assert
 (fp.leq x5 (fp #b0 #b10000100000 #x2a05f20000000)))
(assert
 (fp.geq x6 (fp #b1 #b10000100000 #x2a05f20000000)))
(assert
 (fp.leq x6 (fp #b0 #b10000100000 #x2a05f20000000)))
(assert
 (fp.geq x7 (fp #b1 #b10000100000 #x2a05f20000000)))
(assert
 (fp.leq x7 (fp #b0 #b10000100000 #x2a05f20000000)))
(assert
 (fp.geq x8 (fp #b1 #b10000100000 #x2a05f20000000)))
(assert
 (fp.leq x8 (fp #b0 #b10000100000 #x2a05f20000000)))
(assert
 (fp.geq x9 (fp #b1 #b10000100000 #x2a05f20000000)))
(assert
 (fp.leq x9 (fp #b0 #b10000100000 #x2a05f20000000)))
(assert
 (fp.geq x10 (fp #b1 #b10000100000 #x2a05f20000000)))
(assert
 (fp.leq x10 (fp #b0 #b10000100000 #x2a05f20000000)))
(check-sat)
(exit)
